21 25 20 38 76 89 61 15 69 19 35 44 28 45 81 98 68 48 86 41 23 64 95 22 84 87 5 42 56 47 93 46 33 49 1 82 8 66 26 16 14 57 7 40 24 4 32 39 37 77 83 90 80 88 43 65 75 6 0 94 12 60 36 27 67 85 59 97 58 62 91 3 51 13 74 92 54 11 29 17 55 99 72 71 18 78 2 34 79 31 10 73 96 70 52 63 30 9 50 53